(declare-const a Real)
(declare-const b Real)
(declare-const c Real)
(assert (<= (+ (* 2 a) (* 2 b) (* 2 c)) (+ (* a b) (* a c) (* b c))))
(assert (> a 0))
(assert (> b 0))
(assert (> c 0))
(assert (not (<= (+ (/ 3 5) (* (pow (* (pow (* (pow (+ (pow b 2) (* (/ 1 4) (pow (+ a b c) -2) (pow (+ (* a b) (* a c) (* b c)) 2))) -1) (+ b (* -1 (pow (+ (* 2 a) (* 2 b) (* 2 c)) -1) (+ (* a b) (* a c) (* b c))))) (+ b (* -1 (pow (+ (* 2 a) (* 2 b) (* 2 c)) -1) (+ (* a b) (* a c) (* b c))))) (pow (* (pow (+ (pow c 2) (* (/ 1 4) (pow (+ a b c) -2) (pow (+ (* a b) (* a c) (* b c)) 2))) -1) (+ c (* -1 (pow (+ (* 2 a) (* 2 b) (* 2 c)) -1) (+ (* a b) (* a c) (* b c))))) (+ c (* -1 (pow (+ (* 2 a) (* 2 b) (* 2 c)) -1) (+ (* a b) (* a c) (* b c)))))) (pow (+ b c (* -2 (pow (+ (* 2 a) (* 2 b) (* 2 c)) -1) (+ (* a b) (* a c) (* b c)))) -1)) (+ (* -1 b) (* -1 c) (* (pow (+ (* 2 a) (* 2 b) (* 2 c)) -1) (+ (* 2 a b) (* 2 a c) (* 2 b c))))) (* -1 (pow (+ a (* -1 (pow (+ (* 2 a) (* 2 b) (* 2 c)) -1) (+ (* a b) (* a c) (* b c)))) 2) (pow (+ (pow a 2) (* (/ 1 4) (pow (+ a b c) -2) (pow (+ (* a b) (* a c) (* b c)) 2))) -1))) 0)))
(check-sat)
(get-model)
(exit)